Day = 1
1	R	0	5	0	7	0	11	0	13	0
2	R	0	20	0	23	0	24	0	26	0
3	R	0	30	0	32	0	34	0
4	R	0	36	0	37	0	41	0
5	R	0	54	0	55	0	59	0	60	0
6	R	0	65	0	66	0	67	0	70	0
7	R	0	77	0	83	0	90	0	92	0	94	0	97	0	98	0	99	0	102	0	106	0	107	0	112	0
8	R	0	126	0	127	0	129	0	133	0	134	0
Day = 2
1	R	0	3	0	4	0	8	0	12	0
2	R	0	25	0	28	0	31	0
3	R	0	-36	0	38	0	39	0
4	R	0	42	0	44	0	45	0	46	0
5	R	0	50	0	52	0	53	0
6	R	0	57	0	58	0	61	0
7	R	0	64	0	73	0	79	0	80	0	81	0	-83	0	84	0	85	0	87	0
8	R	0	91	0	93	0	-94	0	95	0	96	0	105	0	109	0	110	0	111	0	116	0
9	R	0	118	0	120	0	124	0	125	0	128	0	130	0	131	0
Day = 3
1	R	0	1	0	-4	0	6	0	9	0
2	R	0	15	0	18	0	-20	0	21	0
3	R	0	-27	0	-34	0	-37	0
4	R	0	-50	0	51	0	-54	0
5	R	0	-58	0	-60	0	-61	0
6	R	0	71	0	-72	0	75	0	76	0	-80	0	-87	0	-91	0	-95	0	-97	0	-98	0
7	R	0	-102	0	103	0	104	0	-106	0	-107	0	-109	0	-112	0	114	0
8	R	0	121	0	132	0	-134	0	135	0	-137	0
Day = 4
1	R	0	-1	0	2	0	-5	0	-6	0
2	R	0	-9	0	10	0	-11	0	-12	0
3	R	0	-17	0	19	0	22	0	-23	0
4	R	0	-26	0	-28	0	29	0
5	R	0	-32	0	-35	0	-39	0
6	R	0	43	0	-44	0	-46	0
7	R	0	48	0	-59	0	-62	0
8	R	0	-66	0	68	0	69	0	-70	0
9	R	0	-75	0	-77	0	78	0	82	0	86	0	88	0	-90	0	-92	0	-93	0	-96	0	-99	0	-100	0
10	R	0	-104	0	108	0	-110	0	-113	0	-114	0	-115	0
11	R	0	-121	0	122	0	123	0	-124	0	-126	0	-127	0	-129	0
12	R	0	-133	0	136	0	-140	0	-142	0	143	0
13	R	0	-145	0	146	0	-147	0	-148	0
Day = 5
1	R	0	-2	0	-3	0	-8	0	-10	0
2	R	0	-15	0	-16	0	-18	0	-19	0
3	R	0	-22	0	-29	0	-31	0
4	R	0	-40	0	-42	0	-43	0
5	R	0	-48	0	-49	0	-51	0
6	R	0	-53	0	-56	0	-57	0
7	R	0	-64	0	-68	0	-69	0	-71	0
8	R	0	-74	0	-76	0	-78	0	-79	0	-81	0	-82	0	-84	0	-85	0
9	R	0	-88	0	-89	0	-101	0	-103	0	-105	0	-108	0	-111	0	-116	0
10	R	0	-118	0	-119	0	-120	0	-122	0	-123	0	-125	0	-128	0
11	R	0	-132	0	-135	0	-136	0	-138	0	-139	0
